c Reduced graph for GEOM30a generated by Cyril Grelier
p edge 30 81
e 1 5
e 1 14
e 1 15
e 1 22
e 1 23
e 1 25
e 1 28
e 2 3
e 2 6
e 2 11
e 2 16
e 2 17
e 2 19
e 3 6
e 3 9
e 3 11
e 3 18
e 4 7
e 4 13
e 4 24
e 5 10
e 5 14
e 5 15
e 5 21
e 5 22
e 5 25
e 5 26
e 5 27
e 5 29
e 6 9
e 6 11
e 6 16
e 6 18
e 7 13
e 7 17
e 7 23
e 7 24
e 8 12
e 8 14
e 8 25
e 8 28
e 9 11
e 9 18
e 10 12
e 10 14
e 10 20
e 10 21
e 10 25
e 11 16
e 11 18
e 12 14
e 12 25
e 12 28
e 12 30
e 13 23
e 13 24
e 14 21
e 14 22
e 14 25
e 14 28
e 15 21
e 15 22
e 15 25
e 15 26
e 15 27
e 15 29
e 16 17
e 16 19
e 17 19
e 20 30
e 21 25
e 21 27
e 22 25
e 22 26
e 22 27
e 22 28
e 22 29
e 25 28
e 26 27
e 26 29
e 27 29
